\ Model tnlap_collapsed
\ LP format - for model browsing. Use MPS format to capture full model detail.
\ Signature: 0xed475b963a535f60
Maximize
  0.3045573770491803 x_3_1_1_3_2[1,1,1,1,1]
   + 0.2042146892655367 x_3_1_1_3_2[2,1,1,1,1]
   + 0.3045573770491803 x_3_1_1_3_2[1,1,1,2,1]
   + 0.2042146892655367 x_3_1_1_3_2[2,1,1,2,1]
   + 0.3333333333333333 x_3_1_1_3_2[3,1,1,3,2]
Subject To
 NB2[1]: y_1_1[1,1] = 1
 NB3[1,1,1]: - y_1_1[1,1] + z_1_1_3_2[1,1,1,1] = 0
 NB3[1,1,2]: - y_1_1[1,1] + z_1_1_3_2[1,1,2,1] = 0
 NB3[1,1,3]: - y_1_1[1,1] + z_1_1_3_2[1,1,3,2] = 0
 NB4[1,1,1,1,1]: x_3_1_1_3_2[1,1,1,1,1] - z_1_1_3_2[1,1,1,1] <= 0
 NB4[2,1,1,1,1]: x_3_1_1_3_2[2,1,1,1,1] - z_1_1_3_2[1,1,1,1] <= 0
 NB4[1,1,1,2,1]: x_3_1_1_3_2[1,1,1,2,1] - z_1_1_3_2[1,1,2,1] <= 0
 NB4[2,1,1,2,1]: x_3_1_1_3_2[2,1,1,2,1] - z_1_1_3_2[1,1,2,1] <= 0
 NB4[3,1,1,3,2]: x_3_1_1_3_2[3,1,1,3,2] - z_1_1_3_2[1,1,3,2] <= 0
 NB5[1]: x_3_1_1_3_2[1,1,1,1,1] + x_3_1_1_3_2[1,1,1,2,1] <= 1
 NB5[2]: x_3_1_1_3_2[2,1,1,1,1] + x_3_1_1_3_2[2,1,1,2,1] <= 1
 NB5[3]: x_3_1_1_3_2[3,1,1,3,2] <= 1
 NB8[1,1,1]: x_3_1_1_3_2[1,1,1,1,1] + x_3_1_1_3_2[2,1,1,1,1] - y_1_1[1,1]
   <= 0
 NB8[1,1,2]: x_3_1_1_3_2[1,1,1,2,1] + x_3_1_1_3_2[2,1,1,2,1] - y_1_1[1,1]
   <= 0
 NB8[1,1,3]: x_3_1_1_3_2[3,1,1,3,2] - y_1_1[1,1] <= 0
Bounds
Binaries
 x_3_1_1_3_2[1,1,1,1,1] x_3_1_1_3_2[2,1,1,1,1] x_3_1_1_3_2[1,1,1,2,1]
 x_3_1_1_3_2[2,1,1,2,1] x_3_1_1_3_2[3,1,1,3,2] y_1_1[1,1]
 z_1_1_3_2[1,1,1,1] z_1_1_3_2[1,1,2,1] z_1_1_3_2[1,1,3,2]
End
